p cnf 7230 16
488 -682 0
488 -685 0
-201 -470 678 0
201 -679 0
-488 -680 681 0
488 -688 0
-488 -683 684 0
-488 -686 687 0
-681 682 0
-678 679 0
686 -688 0
-684 685 0
683 -685 0
680 -682 0
470 -679 0
-687 688 0
